Li3 Co3 O6                              
   1.00000000000000     
     2.8498663676143186    0.0000000000000000    0.0000000000000000
    -1.4249331838071593    2.4680567841884367    0.0000000000000000
     0.0000000000000000   -0.0000000000000001   13.9876731970827706
   Li   Co   O 
     3     3     6
Direct
 -0.0000000000000000 -0.0000000000000000  0.0000000000000000
  0.6666669999999968  0.3333330000000032  0.3333330000000032
  0.3333330000000032  0.6666669999999968  0.6666669999999968
  0.3333330000000032  0.6666669999999968  0.1666669999999968
 -0.0000000000000000 -0.0000000000000000  0.5000000000000000
  0.6666669999999968  0.3333330000000032  0.8333330000000032
 -0.0000000000000000  0.0000000000000000  0.2391116876842059
  0.6666669999999968  0.3333330000000032  0.0942213123157972
  0.6666669999999968  0.3333330000000032  0.5724446876842092
  0.3333330000000032  0.6666669999999968  0.4275553123157907
  0.3333330000000032  0.6666669999999968  0.9057786876842028
  0.0000000000000000 -0.0000000000000000  0.7608883123157940
 