Li3 Co3 O6
1.0
2.842898 0.000000 0.000000
-1.421449 2.462022 0.000000
0.000000 0.000000 14.145615
Li Co O
3 3 6
direct
0.000000 0.000000 0.000000 Li
0.666667 0.333333 0.333333 Li
0.333333 0.666667 0.666667 Li
0.333333 0.666667 0.166667 Co
0.000000 0.000000 0.500000 Co
0.666667 0.333333 0.833333 Co
0.000000 0.000000 0.239587 O
0.666667 0.333333 0.093746 O
0.666667 0.333333 0.572920 O
0.333333 0.666667 0.427080 O
0.333333 0.666667 0.906254 O
0.000000 0.000000 0.760413 O
